% File represents an instance of a Composite Structure problem to be solved by a CP framework
% Created on 2025-03-26 10:41:30.207
T = 54;
n = 25;
m = 40;
edges = [(2, 1),
(6, 7),
(11, 12),
(17, 16),
(22, 21),
(3, 2),
(8, 7),
(13, 12),
(17, 18),
(22, 23),
(4, 3),
(9, 8),
(14, 13),
(19, 18),
(24, 23),
(4, 5),
(9, 10),
(14, 15),
(19, 20),
(24, 25),
(6, 1),
(11, 6),
(11, 16),
(16, 21),
(2, 7),
(12, 7),
(17, 12),
(17, 22),
(3, 8),
(13, 8),
(13, 18),
(18, 23),
(4, 9),
(14, 9),
(14, 19),
(19, 24),
(5, 10),
(15, 10),
(15, 20),
(20, 25)];
counts = [|18, 4, 18, 2,
|18, 4, 18, 4,
|20, 6, 20, 4,
|20, 8, 20, 4,
|18, 8, 18, 2,
|18, 4, 18, 4,
|16, 4, 16, 4,
|18, 4, 18, 4,
|20, 6, 20, 4,
|18, 6, 18, 2,
|18, 4, 18, 6,
|18, 4, 18, 4,
|20, 4, 20, 4,
|22, 6, 22, 4,
|20, 6, 20, 2,
|18, 4, 18, 4,
|20, 4, 20, 4,
|20, 4, 20, 2,
|22, 6, 22, 2,
|20, 4, 20, 2,
|18, 4, 18, 2,
|20, 4, 20, 2,
|20, 2, 20, 2,
|20, 4, 20, 2,
|20, 2, 20, 2|];
